Running HiGHS 1.5.0 [date: 2023-01-20, git hash: b3381829e]
Copyright (c) 2022 HiGHS under MIT licence terms
Number of BV entries in BOUNDS section is 1405
MIP  c5cbaa4446754b6283de0752fbdac483-pulp has 4376 rows; 1406 cols; 7966 nonzeros; 1405 integer variables
Presolving model
3478 rows, 507 cols, 2752 nonzeros
842 rows, 463 cols, 1738 nonzeros
730 rows, 378 cols, 1458 nonzeros
0 rows, 0 cols, 0 nonzeros
Presolve: Optimal

Solving report
  Status            Optimal
  Primal bound      0
  Dual bound        0
  Gap               0% (tolerance: 0.01%)
  Solution status   feasible
                    0 (objective)
                    0 (bound viol.)
                    0 (int. viol.)
                    0 (row viol.)
  Timing            0.11 (total)
                    0.11 (presolve)
                    0.00 (postsolve)
  Nodes             0
  LP iterations     0 (total)
                    0 (strong br.)
                    0 (separation)
                    0 (heuristics)
Writing the solution to /tmp/c5cbaa4446754b6283de0752fbdac483-pulp.sol
